51 6
29 27 28 29 29 26
1 0 0 0 0 0 0 3 2 3 4
7 1 10 1 1 5 7 3 5 6 7
9 5 3 3 7 5 5 3 51 6 7
9 7 10 3 1 8 1 4 5 6 7 8
7 8 2 6 4 9 10 4 9 10 11 12
9 10 8 2 2 4 6 4 9 10 11 12
12 5 6 3 10 2 4 3 9 11 12
8 5 4 4 1 9 10 2 11 12
4 6 9 3 10 2 9 3 14 15 16
9 9 9 10 9 6 5 4 13 14 15 16
7 5 1 10 6 8 2 4 13 14 15 16
12 6 5 9 2 5 3 3 14 15 16
10 6 9 4 5 10 3 2 19 20
3 3 1 10 6 3 5 3 17 19 20
9 3 10 10 3 4 8 3 17 19 20
9 3 1 4 6 9 4 4 17 18 19 20
1 6 5 10 6 4 8 4 21 22 23 24
1 1 3 6 9 5 8 3 22 23 24
9 6 1 8 1 1 1 3 22 23 24
5 2 2 6 8 1 4 4 21 22 23 24
6 5 2 5 9 10 8 4 25 26 27 28
1 3 5 2 8 8 2 4 25 26 27 28
4 1 2 6 9 9 4 4 25 26 27 28
3 3 5 6 9 8 10 4 25 26 27 28
7 6 3 7 1 9 6 2 29 32
3 6 8 9 4 1 5 4 29 30 31 32
4 10 3 4 10 3 10 4 29 30 31 32
3 2 10 10 8 10 4 4 29 30 31 32
7 2 3 1 10 8 5 3 33 34 35
1 8 4 3 5 5 7 2 33 35
3 6 8 6 5 6 6 4 33 34 35 36
7 4 3 8 3 2 1 4 33 34 35 36
7 8 7 5 2 3 10 4 37 38 39 40
8 10 3 4 4 8 2 3 38 39 40
7 9 2 5 3 10 3 3 37 39 40
8 6 6 8 1 6 6 3 37 38 40
10 3 5 3 9 5 1 4 41 42 43 44
8 10 5 5 8 2 1 3 42 43 44
1 3 10 7 6 4 5 4 41 42 43 44
6 9 6 6 5 6 1 2 41 44
3 8 6 1 9 10 8 4 45 46 47 48
3 2 10 2 3 4 2 3 45 46 47
7 9 4 9 2 6 3 4 45 46 47 48
9 9 6 5 10 1 8 4 45 46 47 48
1 4 8 5 7 1 4 2 49 50
6 10 5 7 10 10 3 1 49
6 6 4 1 6 3 4 2 49 50
7 10 6 10 5 7 5 2 49 50
4 2 10 4 8 5 9 1 51
4 6 5 5 2 5 6 1 51
0 0 0 0 0 0 0 0
